nV = 	14;
nS = 	20;
H = 	1700;
T = 	42000;
stCap = 	950;
reclN = 	2;
stackbefore = 	30;
tMaxBetwRecl = 	300;
delayMax = 	14200;
sum_delay_max = 	330000;
discrPadPos = 	1;
discrStackStart = 	1440;
mulTonnage = 	1000;
mulPileLen = 	17;
hourDiscr = 	60;
 % ----------------------------------------- 
eta	 = [14189,15462,17624,20735,21526,22067,23385,23583,25238,26889,27555,28271,31443,32993];
whichV	 = [  1,  2,  3,  4,  5,  5,  6,  6,  7,  7,  8,  9,  9, 10, 10, 11, 12, 13, 13, 14];
dS__	 = [  3,  7,  3,  5,  5,  7,  5,  7,  5,  5,  5,  5,  3,  5,  3,  5,  5,  5,  7,  5];
dR	 = [545,561,952,700,352,546,519,771,861,622,867,1238,1066,1241,589,856,535,193,895,821];

 % ----------------------------------------- 

